; DUP3 PUSH cw_1 SWAP1 DUP1 MLOAD SWAP1 => DUP3 MLOAD PUSH cw_1 SWAP1 DUP5
(set-option :produce-proofs true)
; 
(set-info :status unknown)
(declare-fun storage_t ((_ BitVec 256) (_ BitVec 256) (_ BitVec 256) (_ BitVec 256) (_ BitVec 256) Int (_ BitVec 256)) (_ BitVec 256))
(declare-fun w_1 () (_ BitVec 256))
(declare-fun storage_s ((_ BitVec 256) (_ BitVec 256) (_ BitVec 256) (_ BitVec 256) (_ BitVec 256) Int (_ BitVec 256)) (_ BitVec 256))
(declare-fun exc_halt_t (Int) Bool)
(declare-fun exc_halt_s (Int) Bool)
(declare-fun sc_t (Int) (_ BitVec 6))
(declare-fun stack_t ((_ BitVec 256) (_ BitVec 256) (_ BitVec 256) (_ BitVec 256) (_ BitVec 256) Int (_ BitVec 6)) (_ BitVec 256))
(declare-fun stack_s ((_ BitVec 256) (_ BitVec 256) (_ BitVec 256) (_ BitVec 256) (_ BitVec 256) Int (_ BitVec 6)) (_ BitVec 256))
(declare-fun sc_s (Int) (_ BitVec 6))
(declare-fun used_gas_t ((_ BitVec 256) (_ BitVec 256) (_ BitVec 256) (_ BitVec 256) (_ BitVec 256) Int) Int)
(declare-fun used_gas_s ((_ BitVec 256) (_ BitVec 256) (_ BitVec 256) (_ BitVec 256) (_ BitVec 256) Int) Int)
(declare-fun f_MLOAD ((_ BitVec 256) (_ BitVec 256) (_ BitVec 256) (_ BitVec 256) (_ BitVec 256) (_ BitVec 256)) (_ BitVec 256))
(assert
 (exists ((x_0 (_ BitVec 256)) (x_1 (_ BitVec 256)) (x_2 (_ BitVec 256)) (x_MLOAD_0 (_ BitVec 256)) )(let (($x6588 (forall ((w (_ BitVec 256)) )(let ((?x7912 (storage_t x_0 x_1 x_2 w_1 x_MLOAD_0 5 w)))
 (let ((?x6889 (storage_s x_0 x_1 x_2 w_1 x_MLOAD_0 6 w)))
 (= ?x6889 ?x7912))))
 ))
 (let (($x1885 (exc_halt_t 5)))
 (let (($x772 (exc_halt_s 6)))
 (let (($x11108 (= $x772 $x1885)))
 (let (($x3342 (forall ((n (_ BitVec 6)) )(let ((?x8961 (sc_t 5)))
 (let (($x2543 (bvsle ?x8961 n)))
 (let ((?x2996 (stack_t x_0 x_1 x_2 w_1 x_MLOAD_0 5 n)))
 (let ((?x3114 (stack_s x_0 x_1 x_2 w_1 x_MLOAD_0 6 n)))
 (let (($x2483 (= ?x3114 ?x2996)))
 (or $x2483 $x2543)))))))
 ))
 (let ((?x8961 (sc_t 5)))
 (let ((?x926 (sc_s 6)))
 (let (($x5889 (= ?x926 ?x8961)))
 (let ((?x524 (used_gas_t x_0 x_1 x_2 w_1 x_MLOAD_0 0)))
 (let ((?x8186 (used_gas_s x_0 x_1 x_2 w_1 x_MLOAD_0 0)))
 (let (($x11865 (= ?x8186 ?x524)))
 (let (($x7542 (forall ((w (_ BitVec 256)) )(let ((?x11516 (storage_t x_0 x_1 x_2 w_1 x_MLOAD_0 0 w)))
 (let ((?x3311 (storage_s x_0 x_1 x_2 w_1 x_MLOAD_0 0 w)))
 (= ?x3311 ?x11516))))
 ))
 (let (($x56 (exc_halt_t 0)))
 (let (($x57 (exc_halt_s 0)))
 (let (($x58 (= $x57 $x56)))
 (let (($x9632 (forall ((n (_ BitVec 6)) )(let ((?x2518 (stack_t x_0 x_1 x_2 w_1 x_MLOAD_0 0 n)))
 (let ((?x11550 (stack_s x_0 x_1 x_2 w_1 x_MLOAD_0 0 n)))
 (let (($x9016 (= ?x11550 ?x2518)))
 (let ((?x63 (sc_t 0)))
 (let (($x5223 (bvsle ?x63 n)))
 (or $x5223 $x9016)))))))
 ))
 (let ((?x63 (sc_t 0)))
 (let ((?x72 (sc_s 0)))
 (let (($x73 (= ?x72 ?x63)))
 (let (($x7854 (exc_halt_t 4)))
 (let (($x6071 (not (bvsle (_ bv0 6) (bvadd (_ bv59 6) (sc_t 4))))))
 (let (($x11626 (or $x6071 $x7854 (not (= ((_ extract 6 6) (bvadd (_ bv1 7) (concat (_ bv0 1) (sc_t 4)))) (_ bv0 1))))))
 (let (($x523 (forall ((w (_ BitVec 256)) )(let ((?x11789 (storage_t x_0 x_1 x_2 w_1 x_MLOAD_0 4 w)))
 (let ((?x7912 (storage_t x_0 x_1 x_2 w_1 x_MLOAD_0 5 w)))
 (= ?x7912 ?x11789))))
 ))
 (let (($x11591 (forall ((n (_ BitVec 6)) )(let ((?x6074 (stack_t x_0 x_1 x_2 w_1 x_MLOAD_0 4 n)))
 (let ((?x2996 (stack_t x_0 x_1 x_2 w_1 x_MLOAD_0 5 n)))
 (let ((?x4818 (sc_t 4)))
 (let ((?x10861 (bvadd (_ bv59 6) ?x4818)))
 (let (($x2188 (bvsle ?x10861 n)))
 (or $x2188 (= ?x2996 ?x6074))))))))
 ))
 (let (($x1218 (= (used_gas_t x_0 x_1 x_2 w_1 x_MLOAD_0 5) (+ 3 (used_gas_t x_0 x_1 x_2 w_1 x_MLOAD_0 4)))))
 (let ((?x4818 (sc_t 4)))
 (let ((?x7493 (bvadd (_ bv63 6) ?x4818)))
 (let ((?x1345 (stack_t x_0 x_1 x_2 w_1 x_MLOAD_0 4 ?x7493)))
 (let ((?x1413 (bvadd (_ bv62 6) ?x4818)))
 (let ((?x3702 (stack_t x_0 x_1 x_2 w_1 x_MLOAD_0 4 ?x1413)))
 (let (($x9208 (= (stack_t x_0 x_1 x_2 w_1 x_MLOAD_0 5 (bvadd (_ bv61 6) ?x4818)) (stack_t x_0 x_1 x_2 w_1 x_MLOAD_0 4 (bvadd (_ bv61 6) ?x4818)))))
 (let (($x9290 (= (stack_t x_0 x_1 x_2 w_1 x_MLOAD_0 5 (bvadd (_ bv60 6) ?x4818)) (stack_t x_0 x_1 x_2 w_1 x_MLOAD_0 4 (bvadd (_ bv60 6) ?x4818)))))
 (let ((?x10861 (bvadd (_ bv59 6) ?x4818)))
 (let ((?x4239 (stack_t x_0 x_1 x_2 w_1 x_MLOAD_0 4 ?x10861)))
 (let (($x5766 (= $x7854 (or (exc_halt_t 3) (not (bvsle (_ bv0 6) (bvadd (_ bv62 6) (sc_t 3))))))))
 (let (($x4357 (forall ((w (_ BitVec 256)) )(let ((?x9584 (storage_t x_0 x_1 x_2 w_1 x_MLOAD_0 3 w)))
 (let ((?x11789 (storage_t x_0 x_1 x_2 w_1 x_MLOAD_0 4 w)))
 (= ?x11789 ?x9584))))
 ))
 (let (($x3791 (forall ((n (_ BitVec 6)) )(let ((?x9801 (stack_t x_0 x_1 x_2 w_1 x_MLOAD_0 3 n)))
 (let ((?x6074 (stack_t x_0 x_1 x_2 w_1 x_MLOAD_0 4 n)))
 (let ((?x11304 (sc_t 3)))
 (let ((?x3447 (bvadd (_ bv62 6) ?x11304)))
 (let (($x7062 (bvsle ?x3447 n)))
 (or $x7062 (= ?x6074 ?x9801))))))))
 ))
 (let ((?x11304 (sc_t 3)))
 (let (($x2257 (= ?x4818 ?x11304)))
 (let ((?x8614 (used_gas_t x_0 x_1 x_2 w_1 x_MLOAD_0 4)))
 (let (($x9443 (not (= ((_ extract 6 6) (bvadd (_ bv1 7) (concat (_ bv0 1) (sc_t 2)))) (_ bv0 1)))))
 (let (($x2556 (exc_halt_t 2)))
 (let (($x3614 (exc_halt_t 3)))
 (let (($x311 (= $x3614 (or $x2556 $x9443))))
 (let (($x3221 (forall ((w (_ BitVec 256)) )(let ((?x5138 (storage_t x_0 x_1 x_2 w_1 x_MLOAD_0 2 w)))
 (let ((?x9584 (storage_t x_0 x_1 x_2 w_1 x_MLOAD_0 3 w)))
 (= ?x9584 ?x5138))))
 ))
 (let (($x11493 (forall ((n (_ BitVec 6)) )(let ((?x3182 (stack_t x_0 x_1 x_2 w_1 x_MLOAD_0 2 n)))
 (let ((?x9801 (stack_t x_0 x_1 x_2 w_1 x_MLOAD_0 3 n)))
 (let ((?x2714 (sc_t 2)))
 (let (($x4018 (bvsle ?x2714 n)))
 (or $x4018 (= ?x9801 ?x3182)))))))
 ))
 (let (($x6852 (= ?x11304 (bvadd (_ bv1 6) (sc_t 2)))))
 (let ((?x5497 (used_gas_t x_0 x_1 x_2 w_1 x_MLOAD_0 3)))
 (let (($x8416 (= $x2556 (or (exc_halt_t 1) (not (bvsle (_ bv0 6) (bvadd (_ bv63 6) (sc_t 1))))))))
 (let (($x9010 (forall ((w (_ BitVec 256)) )(let ((?x2652 (storage_t x_0 x_1 x_2 w_1 x_MLOAD_0 1 w)))
 (let ((?x5138 (storage_t x_0 x_1 x_2 w_1 x_MLOAD_0 2 w)))
 (= ?x5138 ?x2652))))
 ))
 (let (($x11006 (forall ((n (_ BitVec 6)) )(let ((?x4459 (stack_t x_0 x_1 x_2 w_1 x_MLOAD_0 1 n)))
 (let ((?x3182 (stack_t x_0 x_1 x_2 w_1 x_MLOAD_0 2 n)))
 (let ((?x7154 (sc_t 1)))
 (let ((?x9462 (bvadd (_ bv63 6) ?x7154)))
 (let (($x707 (bvsle ?x9462 n)))
 (or $x707 (= ?x3182 ?x4459))))))))
 ))
 (let ((?x7154 (sc_t 1)))
 (let ((?x2714 (sc_t 2)))
 (let (($x381 (= ?x2714 ?x7154)))
 (let ((?x1354 (used_gas_t x_0 x_1 x_2 w_1 x_MLOAD_0 2)))
 (let ((?x9462 (bvadd (_ bv63 6) ?x7154)))
 (let ((?x11414 (stack_t x_0 x_1 x_2 w_1 x_MLOAD_0 1 ?x9462)))
 (let (($x8374 (= (stack_t x_0 x_1 x_2 w_1 x_MLOAD_0 2 (bvadd (_ bv63 6) ?x2714)) (f_MLOAD x_0 x_1 x_2 w_1 x_MLOAD_0 ?x11414))))
 (let (($x3075 (not (= ((_ extract 6 6) (bvadd (_ bv1 7) (concat (_ bv0 1) ?x63))) (_ bv0 1)))))
 (let (($x8377 (exc_halt_t 1)))
 (let (($x9042 (forall ((w (_ BitVec 256)) )(let ((?x11516 (storage_t x_0 x_1 x_2 w_1 x_MLOAD_0 0 w)))
 (let ((?x2652 (storage_t x_0 x_1 x_2 w_1 x_MLOAD_0 1 w)))
 (= ?x2652 ?x11516))))
 ))
 (let (($x6000 (forall ((n (_ BitVec 6)) )(let ((?x2518 (stack_t x_0 x_1 x_2 w_1 x_MLOAD_0 0 n)))
 (let ((?x4459 (stack_t x_0 x_1 x_2 w_1 x_MLOAD_0 1 n)))
 (or (bvsle (bvadd (_ bv61 6) (sc_t 0)) n) (= ?x4459 ?x2518)))))
 ))
 (let (($x6360 (= ?x7154 (bvadd (_ bv1 6) ?x63))))
 (let (($x3489 (= (stack_t x_0 x_1 x_2 w_1 x_MLOAD_0 1 (bvadd (_ bv63 6) ?x63)) (stack_t x_0 x_1 x_2 w_1 x_MLOAD_0 0 (bvadd (_ bv63 6) ?x63)))))
 (let (($x2926 (= (stack_t x_0 x_1 x_2 w_1 x_MLOAD_0 1 (bvadd (_ bv62 6) ?x63)) (stack_t x_0 x_1 x_2 w_1 x_MLOAD_0 0 (bvadd (_ bv62 6) ?x63)))))
 (let ((?x913 (bvadd (_ bv61 6) ?x63)))
 (let ((?x1264 (stack_t x_0 x_1 x_2 w_1 x_MLOAD_0 0 ?x913)))
 (let (($x10454 (= $x772 (or (exc_halt_s 5) (not (bvsle (_ bv0 6) (bvadd (_ bv62 6) (sc_s 5))))))))
 (let (($x7950 (forall ((w (_ BitVec 256)) )(let ((?x5684 (storage_s x_0 x_1 x_2 w_1 x_MLOAD_0 5 w)))
 (let ((?x6889 (storage_s x_0 x_1 x_2 w_1 x_MLOAD_0 6 w)))
 (= ?x6889 ?x5684))))
 ))
 (let (($x4146 (forall ((n (_ BitVec 6)) )(let ((?x5816 (stack_s x_0 x_1 x_2 w_1 x_MLOAD_0 5 n)))
 (let ((?x3114 (stack_s x_0 x_1 x_2 w_1 x_MLOAD_0 6 n)))
 (let ((?x4319 (sc_s 5)))
 (let ((?x10793 (bvadd (_ bv62 6) ?x4319)))
 (let (($x832 (bvsle ?x10793 n)))
 (or $x832 (= ?x3114 ?x5816))))))))
 ))
 (let ((?x4319 (sc_s 5)))
 (let (($x5117 (= ?x926 ?x4319)))
 (let (($x10762 (= (used_gas_s x_0 x_1 x_2 w_1 x_MLOAD_0 6) (+ 3 (used_gas_s x_0 x_1 x_2 w_1 x_MLOAD_0 5)))))
 (let ((?x5044 (bvadd (_ bv63 6) ?x4319)))
 (let ((?x9213 (stack_s x_0 x_1 x_2 w_1 x_MLOAD_0 5 ?x5044)))
 (let (($x8641 (= (stack_s x_0 x_1 x_2 w_1 x_MLOAD_0 6 (bvadd (_ bv63 6) ?x926)) (stack_s x_0 x_1 x_2 w_1 x_MLOAD_0 5 (bvadd (_ bv62 6) ?x4319)))))
 (let (($x11317 (exc_halt_s 5)))
 (let (($x3974 (= $x11317 (or (exc_halt_s 4) (not (bvsle (_ bv0 6) (bvadd (_ bv63 6) (sc_s 4))))))))
 (let (($x1010 (forall ((w (_ BitVec 256)) )(let ((?x10666 (storage_s x_0 x_1 x_2 w_1 x_MLOAD_0 4 w)))
 (let ((?x5684 (storage_s x_0 x_1 x_2 w_1 x_MLOAD_0 5 w)))
 (= ?x5684 ?x10666))))
 ))
 (let (($x2396 (forall ((n (_ BitVec 6)) )(let ((?x646 (stack_s x_0 x_1 x_2 w_1 x_MLOAD_0 4 n)))
 (let ((?x5816 (stack_s x_0 x_1 x_2 w_1 x_MLOAD_0 5 n)))
 (let ((?x4305 (sc_s 4)))
 (let ((?x11384 (bvadd (_ bv63 6) ?x4305)))
 (let (($x716 (bvsle ?x11384 n)))
 (or $x716 (= ?x5816 ?x646))))))))
 ))
 (let ((?x4305 (sc_s 4)))
 (let (($x1176 (= ?x4319 ?x4305)))
 (let ((?x6332 (used_gas_s x_0 x_1 x_2 w_1 x_MLOAD_0 5)))
 (let ((?x11384 (bvadd (_ bv63 6) ?x4305)))
 (let ((?x8604 (stack_s x_0 x_1 x_2 w_1 x_MLOAD_0 4 ?x11384)))
 (let (($x9422 (not (bvsle (_ bv0 6) (bvadd (_ bv63 6) (sc_s 3))))))
 (let (($x3091 (not (= ((_ extract 6 6) (bvadd (_ bv1 7) (concat (_ bv0 1) (sc_s 3)))) (_ bv0 1)))))
 (let (($x292 (exc_halt_s 3)))
 (let (($x7172 (exc_halt_s 4)))
 (let (($x5778 (= $x7172 (or $x292 $x3091 $x9422))))
 (let (($x1741 (forall ((w (_ BitVec 256)) )(let ((?x3744 (storage_s x_0 x_1 x_2 w_1 x_MLOAD_0 3 w)))
 (let ((?x10666 (storage_s x_0 x_1 x_2 w_1 x_MLOAD_0 4 w)))
 (= ?x10666 ?x3744))))
 ))
 (let (($x9905 (forall ((n (_ BitVec 6)) )(let ((?x275 (sc_s 3)))
 (let ((?x5611 (bvadd (_ bv63 6) ?x275)))
 (let (($x8017 (bvsle ?x5611 n)))
 (let ((?x1409 (stack_s x_0 x_1 x_2 w_1 x_MLOAD_0 3 n)))
 (let ((?x646 (stack_s x_0 x_1 x_2 w_1 x_MLOAD_0 4 n)))
 (or (= ?x646 ?x1409) $x8017)))))))
 ))
 (let (($x10757 (= ?x4305 (bvadd (_ bv1 6) (sc_s 3)))))
 (let ((?x6929 (used_gas_s x_0 x_1 x_2 w_1 x_MLOAD_0 4)))
 (let ((?x275 (sc_s 3)))
 (let ((?x5611 (bvadd (_ bv63 6) ?x275)))
 (let ((?x6241 (stack_s x_0 x_1 x_2 w_1 x_MLOAD_0 3 ?x5611)))
 (let (($x8129 (= $x292 (or (exc_halt_s 2) (not (bvsle (_ bv0 6) (bvadd (_ bv62 6) (sc_s 2))))))))
 (let (($x6713 (forall ((w (_ BitVec 256)) )(let ((?x2472 (storage_s x_0 x_1 x_2 w_1 x_MLOAD_0 2 w)))
 (let ((?x3744 (storage_s x_0 x_1 x_2 w_1 x_MLOAD_0 3 w)))
 (= ?x3744 ?x2472))))
 ))
 (let (($x5255 (forall ((n (_ BitVec 6)) )(let ((?x10032 (stack_s x_0 x_1 x_2 w_1 x_MLOAD_0 2 n)))
 (let ((?x1409 (stack_s x_0 x_1 x_2 w_1 x_MLOAD_0 3 n)))
 (let ((?x218 (sc_s 2)))
 (let ((?x6221 (bvadd (_ bv62 6) ?x218)))
 (let (($x8187 (bvsle ?x6221 n)))
 (or $x8187 (= ?x1409 ?x10032))))))))
 ))
 (let ((?x218 (sc_s 2)))
 (let (($x4607 (= ?x275 ?x218)))
 (let ((?x6431 (used_gas_s x_0 x_1 x_2 w_1 x_MLOAD_0 3)))
 (let (($x8389 (= (stack_s x_0 x_1 x_2 w_1 x_MLOAD_0 3 (bvadd (_ bv62 6) ?x275)) (stack_s x_0 x_1 x_2 w_1 x_MLOAD_0 2 (bvadd (_ bv63 6) ?x218)))))
 (let (($x182 (not (= ((_ extract 6 6) (bvadd (_ bv1 7) (concat (_ bv0 1) (sc_s 1)))) (_ bv0 1)))))
 (let (($x189 (exc_halt_s 1)))
 (let (($x247 (exc_halt_s 2)))
 (let (($x4551 (= $x247 (or $x189 $x182))))
 (let (($x6727 (forall ((w (_ BitVec 256)) )(let ((?x10754 (storage_s x_0 x_1 x_2 w_1 x_MLOAD_0 1 w)))
 (let ((?x2472 (storage_s x_0 x_1 x_2 w_1 x_MLOAD_0 2 w)))
 (= ?x2472 ?x10754))))
 ))
 (let (($x11096 (forall ((n (_ BitVec 6)) )(let ((?x154 (sc_s 1)))
 (let (($x9839 (bvsle ?x154 n)))
 (let ((?x861 (stack_s x_0 x_1 x_2 w_1 x_MLOAD_0 1 n)))
 (let ((?x10032 (stack_s x_0 x_1 x_2 w_1 x_MLOAD_0 2 n)))
 (or (= ?x10032 ?x861) $x9839))))))
 ))
 (let (($x10700 (= ?x218 (bvadd (_ bv1 6) (sc_s 1)))))
 (let ((?x1291 (used_gas_s x_0 x_1 x_2 w_1 x_MLOAD_0 2)))
 (let (($x8163 (not (= ((_ extract 6 6) (bvadd (_ bv1 7) (concat (_ bv0 1) ?x72))) (_ bv0 1)))))
 (let (($x5907 (not (bvsle (_ bv0 6) (bvadd (_ bv61 6) ?x72)))))
 (let (($x11298 (forall ((w (_ BitVec 256)) )(let ((?x3311 (storage_s x_0 x_1 x_2 w_1 x_MLOAD_0 0 w)))
 (let ((?x10754 (storage_s x_0 x_1 x_2 w_1 x_MLOAD_0 1 w)))
 (= ?x10754 ?x3311))))
 ))
 (let (($x2082 (forall ((n (_ BitVec 6)) )(let ((?x72 (sc_s 0)))
 (let ((?x7270 (bvadd (_ bv61 6) ?x72)))
 (let (($x5742 (bvsle ?x7270 n)))
 (let ((?x11550 (stack_s x_0 x_1 x_2 w_1 x_MLOAD_0 0 n)))
 (let ((?x861 (stack_s x_0 x_1 x_2 w_1 x_MLOAD_0 1 n)))
 (or (= ?x861 ?x11550) $x5742)))))))
 ))
 (let ((?x154 (sc_s 1)))
 (let (($x6960 (= ?x154 (bvadd (_ bv1 6) ?x72))))
 (let (($x5095 (= (stack_s x_0 x_1 x_2 w_1 x_MLOAD_0 1 (bvadd (_ bv63 6) ?x72)) (stack_s x_0 x_1 x_2 w_1 x_MLOAD_0 0 (bvadd (_ bv63 6) ?x72)))))
 (let (($x8276 (= (stack_s x_0 x_1 x_2 w_1 x_MLOAD_0 1 (bvadd (_ bv62 6) ?x72)) (stack_s x_0 x_1 x_2 w_1 x_MLOAD_0 0 (bvadd (_ bv62 6) ?x72)))))
 (let ((?x7270 (bvadd (_ bv61 6) ?x72)))
 (let ((?x10785 (stack_s x_0 x_1 x_2 w_1 x_MLOAD_0 0 ?x7270)))
 (let (($x6322 (forall ((w0 (_ BitVec 256)) )(let (($x642 (= (stack_s x_0 x_1 x_2 w_1 x_MLOAD_0 4 (bvadd (_ bv63 6) (sc_s 4))) w0)))
 (let ((?x38 (f_MLOAD x_0 x_1 x_2 w_1 x_MLOAD_0 w0)))
 (= ?x38 (ite $x642 x_MLOAD_0 (_ bv0 256))))))
 ))
 (let (($x4931 (forall ((w (_ BitVec 256)) )(let ((?x3311 (storage_s x_0 x_1 x_2 w_1 x_MLOAD_0 0 w)))
 (= ?x3311 (_ bv0 256))))
 ))
 (let (($x6732 (= ?x8186 0)))
 (let (($x4616 (not $x57)))
 (let (($x7243 (= (stack_s x_0 x_1 x_2 w_1 x_MLOAD_0 0 (_ bv2 6)) x_2)))
 (let (($x9785 (= (stack_s x_0 x_1 x_2 w_1 x_MLOAD_0 0 (_ bv1 6)) x_1)))
 (let (($x5231 (= (stack_s x_0 x_1 x_2 w_1 x_MLOAD_0 0 (_ bv0 6)) x_0)))
 (let (($x3492 (= ?x72 (_ bv3 6))))
 (and $x3492 $x5231 $x9785 $x7243 $x4616 $x6732 $x4931 $x6322 (= (stack_s x_0 x_1 x_2 w_1 x_MLOAD_0 1 (bvadd (_ bv63 6) ?x154)) ?x10785) (= (stack_s x_0 x_1 x_2 w_1 x_MLOAD_0 1 ?x7270) ?x10785) $x8276 $x5095 (= (used_gas_s x_0 x_1 x_2 w_1 x_MLOAD_0 1) (+ 3 ?x8186)) $x6960 $x2082 $x11298 (= $x189 (or $x57 $x5907 $x8163)) (= (stack_s x_0 x_1 x_2 w_1 x_MLOAD_0 2 ?x154) w_1) (= ?x1291 (+ 3 (used_gas_s x_0 x_1 x_2 w_1 x_MLOAD_0 1))) $x10700 $x11096 $x6727 $x4551 (= ?x6241 (stack_s x_0 x_1 x_2 w_1 x_MLOAD_0 2 (bvadd (_ bv62 6) ?x218))) $x8389 (= ?x6431 (+ 3 ?x1291)) $x4607 $x5255 $x6713 $x8129 (= ?x8604 ?x6241) (= (stack_s x_0 x_1 x_2 w_1 x_MLOAD_0 4 ?x5611) ?x6241) (= ?x6929 (+ 3 ?x6431)) $x10757 $x9905 $x1741 $x5778 (= ?x9213 (f_MLOAD x_0 x_1 x_2 w_1 x_MLOAD_0 ?x8604)) (= ?x6332 (+ 3 ?x6929)) $x1176 $x2396 $x1010 $x3974 $x8641 (= (stack_s x_0 x_1 x_2 w_1 x_MLOAD_0 6 (bvadd (_ bv62 6) ?x926)) ?x9213) $x10762 $x5117 $x4146 $x7950 $x10454 (= ?x11414 ?x1264) (= (stack_t x_0 x_1 x_2 w_1 x_MLOAD_0 1 ?x913) ?x1264) $x2926 $x3489 (= (used_gas_t x_0 x_1 x_2 w_1 x_MLOAD_0 1) (+ 3 ?x524)) $x6360 $x6000 $x9042 (= $x8377 (or $x56 $x3075 (not (bvsle (_ bv0 6) ?x913)))) $x8374 (= ?x1354 (+ 3 (used_gas_t x_0 x_1 x_2 w_1 x_MLOAD_0 1))) $x381 $x11006 $x9010 $x8416 (= (stack_t x_0 x_1 x_2 w_1 x_MLOAD_0 3 ?x2714) w_1) (= ?x5497 (+ 3 ?x1354)) $x6852 $x11493 $x3221 $x311 (= ?x1345 (stack_t x_0 x_1 x_2 w_1 x_MLOAD_0 3 (bvadd (_ bv62 6) ?x11304))) (= ?x3702 (stack_t x_0 x_1 x_2 w_1 x_MLOAD_0 3 (bvadd (_ bv63 6) ?x11304))) (= ?x8614 (+ 3 ?x5497)) $x2257 $x3791 $x4357 $x5766 (= (stack_t x_0 x_1 x_2 w_1 x_MLOAD_0 5 (bvadd (_ bv63 6) ?x8961)) ?x4239) (= (stack_t x_0 x_1 x_2 w_1 x_MLOAD_0 5 ?x10861) ?x4239) $x9290 $x9208 (= (stack_t x_0 x_1 x_2 w_1 x_MLOAD_0 5 ?x1413) ?x3702) (= (stack_t x_0 x_1 x_2 w_1 x_MLOAD_0 5 ?x7493) ?x1345) $x1218 (= ?x8961 (bvadd (_ bv1 6) ?x4818)) $x11591 $x523 (= $x1885 $x11626) $x73 $x9632 $x58 $x7542 $x11865 (not (and $x5889 $x3342 $x11108 $x6588))))))))))))))))))))))))))))))))))))))))))))))))))))))))))))))))))))))))))))))))))))))))))))))))))))))))))))))))))))))))))))))))))))))
 )
(check-sat)
(get-proof)
